c SAT Generator for power-law distributed variable frequencies
c -g u -v 20 -c 91 -k 3 -p 2.750000 -b 3.200000 -f /home/schmidt/Devel/ni-kop-sat/data/ensemble/ruf20-91/ruf20-91-389 -u 1 -U 1 -s 2406091454
p cnf 20 91
2 10 13 0
-2 -12 -15 0
-2 3 -11 0
3 -13 18 0
8 -9 10 0
-2 5 -12 0
6 8 -15 0
-6 7 -16 0
8 -10 19 0
-3 8 -20 0
8 14 -15 0
1 -12 -20 0
-8 9 -17 0
12 -14 -15 0
-8 15 19 0
1 8 -16 0
-6 -11 -20 0
9 -17 19 0
-9 11 12 0
-3 -9 -18 0
-1 10 18 0
4 -16 -18 0
4 14 15 0
-2 -12 20 0
3 10 -20 0
-1 -5 17 0
-2 4 13 0
-11 13 -14 0
14 -15 -17 0
7 -8 -10 0
6 7 17 0
8 12 -14 0
-5 -9 16 0
-3 19 -20 0
-9 -10 15 0
12 -16 -18 0
9 12 -13 0
-5 9 13 0
-3 -6 -14 0
18 19 -20 0
-8 -12 -14 0
14 -17 20 0
-1 2 -7 0
2 -12 13 0
2 -18 -19 0
6 10 -17 0
-8 -12 17 0
-10 -15 20 0
6 -9 18 0
-5 10 -17 0
-4 -8 -12 0
17 -18 -19 0
-15 17 20 0
-7 -15 -17 0
-2 -4 15 0
-2 -6 16 0
3 9 -13 0
6 15 19 0
-9 11 20 0
-3 -8 17 0
-5 -12 -19 0
-11 -17 19 0
3 19 -20 0
-5 -8 -18 0
7 17 19 0
12 -17 20 0
-6 -10 11 0
-6 10 14 0
-3 11 -13 0
2 15 16 0
3 4 -18 0
6 -13 16 0
-3 -4 -20 0
-3 8 14 0
-5 -8 12 0
1 -5 -10 0
6 15 -16 0
4 -8 16 0
4 8 12 0
-1 -18 19 0
9 14 -17 0
-2 11 12 0
10 -16 -18 0
5 9 -13 0
-14 16 -17 0
-2 6 -15 0
6 12 -16 0
9 -17 20 0
-2 -6 12 0
4 -8 11 0
-4 11 -15 0
